********************************************************************************
Field Output Report, written Wed Jun 13 17:41:43 2012

Source 1
---------

   ODB: D:/Axis/Model Input Files/hexaedro_validacao/problema_1/abaqus/problema_1.odb
   Step: Step-1
   Frame: Increment      1: Step Time =    1.000

Loc 1 : Element nodal values from source 1 ( Average criteria = 75%, Not averaged across region boundaries )

Output sorted by column "Node Label".

Field Output reported at element nodes for part: PART-1-1
   Computation algorithm: EXTRAPOLATE_COMPUTE_AVERAGE
   Averaged at nodes
   Averaging regions: ODB_REGIONS

         Element            Node           E.E11           E.E22           E.E33           E.E12           E.E13           E.E23           S.S11           S.S22           S.S33           S.S12           S.S13           S.S23
           Label           Label          @Loc 1          @Loc 1          @Loc 1          @Loc 1          @Loc 1          @Loc 1          @Loc 1          @Loc 1          @Loc 1          @Loc 1          @Loc 1          @Loc 1
---------------------------------------------------------------------------------------------------------------------------------------------------------------------------------------------------------------------------------
               1               1     16.2676E-24    -935.869E-27        250.E-09    -345.127E-33     29.7323E-24     80.6554E-24     3.25353E-12    -187.174E-15         50.E+03    -535.325E-21     2.97323E-12     8.06554E-12
               1               2    -75.2546E-24    -81.0478E-24        250.E-09    -197.215E-33     46.1296E-24     163.382E-24    -15.0509E-12    -16.2096E-12         50.E+03     54.2101E-21     4.61296E-12     16.3382E-12
               1               3     74.7657E-24     80.9073E-24        250.E-09    -1.57772E-30     144.784E-27     146.957E-24     14.9531E-12     16.1815E-12         50.E+03     -108.42E-21     14.4771E-15     14.6957E-12
               1               4    -32.4788E-24    -11.7152E-24        250.E-09    -788.861E-33     22.9654E-24     85.0564E-24    -6.49576E-12    -2.34304E-12         50.E+03     325.261E-21     2.29654E-12     8.50564E-12
               1               5     6.71157E-24     30.7621E-24        250.E-09     60.2258E-24     167.773E-24      132.63E-24     1.34231E-12     6.15242E-12         50.E+03     6.02258E-12     16.7773E-12      13.263E-12
               1               6    -64.7149E-24    -77.6203E-24        250.E-09     13.2349E-24     164.805E-24    -301.778E-24     -12.943E-12    -15.5241E-12         50.E+03     1.32349E-12     16.4805E-12    -30.1778E-12
               1               7      52.802E-24     77.8637E-24        250.E-09     6.61744E-24    -318.418E-24    -277.524E-24     10.5604E-12     15.5727E-12         50.E+03     661.745E-15    -31.8418E-12    -27.7524E-12
               1               8    -61.6438E-24    -38.0662E-24        250.E-09     53.6083E-24    -250.443E-24     126.131E-24    -12.3288E-12    -7.61324E-12         50.E+03     5.36084E-12    -25.0443E-12     12.6131E-12


  Minimum                           -75.2546E-24    -81.0478E-24        250.E-09    -1.57772E-30    -318.418E-24    -301.778E-24    -15.0509E-12    -16.2096E-12         50.E+03    -535.325E-21    -31.8418E-12    -30.1778E-12
      At Element                               1               1               1               1               1               1               1               1               1               1               1               1
            Node                               2               2               8               3               7               6               2               2               8               1               7               6

  Maximum                            74.7657E-24     80.9073E-24        250.E-09     60.2258E-24     167.773E-24     163.382E-24     14.9531E-12     16.1815E-12         50.E+03     6.02258E-12     16.7773E-12     16.3382E-12
      At Element                               1               1               1               1               1               1               1               1               1               1               1               1
            Node                               3               3               1               5               5               2               3               3               7               5               5               2

           Total                    -83.5452E-24    -19.8523E-24     2.00000E-06     133.686E-24    -137.312E-24     155.510E-24    -16.7090E-12    -3.97047E-12     400.000E+03     13.3686E-12    -13.7312E-12     15.5510E-12


