********************************************************************************
Field Output Report, written Tue May 22 14:24:48 2012

Source 1
---------

   ODB: D:/Axis/Model Input Files/hexaedro_validacao/problema_5_poisson/abaqus/problema_5_poisson.odb
   Step: Step-1
   Frame: Increment      1: Step Time =    1.000

Loc 1 : Nodal values from source 1

Output sorted by column "Node Label".

Field Output reported at nodes for part: PART-1-1
   Computation algorithm: EXTRAPOLATE_COMPUTE_AVERAGE
   Averaged at nodes
   Averaging regions: ODB_REGIONS

            Node            U.U1            U.U2            U.U3           S.S11           S.S22           S.S33           S.S12           S.S13           S.S23
           Label          @Loc 1          @Loc 1          @Loc 1          @Loc 1          @Loc 1          @Loc 1          @Loc 1          @Loc 1          @Loc 1
-----------------------------------------------------------------------------------------------------------------------------------------------------------------
               1     70.3742E-09     82.8397E-09        12.5E-33    -2.12799E-12    -4.92177E-12         50.E+03     17.1849E-12     7.05437E-12     23.7297E-12
               2    -4.62583E-09     121.323E-09        12.5E-33     8.55975E-12    -17.1323E-12         50.E+03     272.916E-15     3.17755E-12     11.3975E-12
               3    -43.1094E-09     46.3232E-09        12.5E-33     11.0923E-12     16.9061E-12         50.E+03     -5.5259E-12    -5.46665E-12     6.93004E-12
               4     31.8906E-09     7.83968E-09        12.5E-33    -11.5797E-12     9.14275E-12         50.E+03     10.5296E-12    -3.45124E-12     12.9292E-12
               5     70.3742E-09     82.8397E-09        250.E-09     1.64059E-12    -11.4491E-12         50.E+03     1.74791E-12    -13.6221E-12    -30.9819E-12
               6    -4.62583E-09     121.323E-09        250.E-09    -8.42915E-12    -25.5137E-12         50.E+03    -8.86725E-12     -21.746E-12      12.268E-12
               7    -43.1094E-09     46.3232E-09        250.E-09    -17.8809E-12     -33.277E-12         50.E+03    -18.1234E-12     29.9779E-12     1.46747E-12
               8     31.8906E-09     7.83968E-09        250.E-09      36.915E-12     55.3311E-12         50.E+03    -10.1832E-12     26.9827E-12    -36.2129E-12


  Minimum           -43.1094E-09     7.83968E-09        12.5E-33    -17.8809E-12     -33.277E-12         50.E+03    -18.1234E-12     -21.746E-12    -36.2129E-12
         At Node               3               8               4               7               7               8               7               6               8

  Maximum            70.3742E-09     121.323E-09        250.E-09      36.915E-12     55.3311E-12         50.E+03     17.1849E-12     29.9779E-12     23.7297E-12
         At Node               1               6               8               8               8               7               1               7               1

           Total     109.059E-09     516.652E-09    1000.000E-09     18.1899E-12    -10.9139E-12     400.000E+03    -12.9645E-12     22.9065E-12     1.52710E-12


